TYPE : Vertex Cover
DIMENSION: 34
EDGE_DATA_SECTION:
0 1
0 6
0 8
0 9
0 12
0 18
0 19
0 25
1 2
1 8
1 11
1 13
1 29
1 32
2 6
2 11
2 13
2 23
2 28
3 9
3 10
3 12
3 18
3 32
4 5
4 7
4 17
4 22
5 9
5 12
5 13
5 14
5 16
5 28
5 31
5 33
6 12
6 16
7 13
7 15
7 28
7 30
8 9
8 11
8 19
8 22
8 26
9 10
9 18
9 22
9 26
9 31
10 13
10 26
11 12
11 32
12 15
12 18
12 23
12 25
13 14
13 17
13 32
13 33
14 26
14 29
14 31
14 32
15 17
15 23
16 25
17 23
17 24
17 30
18 19
18 25
18 31
19 23
19 25
19 27
19 31
19 32
20 21
20 23
20 28
20 33
23 26
23 28
23 31
25 26
25 30
26 31
28 32
30 32
-1
VERTEX_DEGREE:
8.0 7.0 6.0 5.0 4.0 9.0 4.0 5.0 7.0 9.0 4.0 5.0 9.0 9.0 6.0 4.0 3.0 6.0 7.0 8.0 4.0 1.0 3.0 9.0 1.0 7.0 7.0 1.0 6.0 2.0 4.0 7.0 8.0 3.0
VERTEX_COVER:
1 2 3 4 5 6 7 8 9 12 13 14 17 18 19 20 23 25 26 32
EOF
